param N := 50;
param U := 50;

param CAPACITY := 100;

param WEIGHT :=
1	99
2	95
3	93
4	92
5	91
6	89
7	89
8	88
9	88
10	85
11	84
12	84
13	84
14	80
15	80
16	79
17	77
18	76
19	72
20	69
21	65
22	64
23	64
24	63
25	63
26	60
27	56
28	56
29	53
30	53
31	52
32	51
33	50
34	50
35	49
36	49
37	47
38	44
39	41
40	41
41	40
42	40
43	40
44	35
45	35
46	34
47	32
48	31
49	31
50	30
;

